Version identifier: 20.1.0.0 | 2020-11-10 | 9bedb6d68
CPXPARAM_Threads                                 1
CPXPARAM_TimeLimit                               7200
CPXPARAM_MIP_Tolerances_MIPGap                   0
Generic callback                                 0x60
1 of 1 MIP starts provided solutions.
MIP start 'm1' defined initial solution with objective 2180.0019.
Tried aggregator 1 time.
Reduced MIP has 800801 rows, 801001 columns, and 2401000 nonzeros.
Reduced MIP has 1000 binaries, 0 generals, 0 SOSs, and 0 indicators.
Presolve time = 0.81 sec. (759.66 ticks)
Probing time = 0.11 sec. (100.05 ticks)
Tried aggregator 1 time.
Reduced MIP has 800801 rows, 801001 columns, and 2401000 nonzeros.
Reduced MIP has 1000 binaries, 0 generals, 0 SOSs, and 0 indicators.
Presolve time = 0.79 sec. (746.68 ticks)
Probing time = 0.10 sec. (100.05 ticks)
MIP emphasis: balance optimality and feasibility.
MIP search method: dynamic search.
Parallel mode: none, using 1 thread.
Root relaxation solution time = 0.26 sec. (308.33 ticks)

        Nodes                                         Cuts/
   Node  Left     Objective  IInf  Best Integer    Best Bound    ItCnt     Gap

*     0+    0                         2180.0019     4368.0000           100.37%
      0     0     2413.1122    16     2180.0019     4368.0000        0  100.37%
      0     0     2413.0964    16     2180.0019      Fract: 2      525   10.69%
      0     2     2413.0964    16     2180.0019     2413.0964      525   10.69%
Elapsed time = 422.33 sec. (436367.29 ticks, tree = 0.01 MB, solutions = 1)
*     1     1      integral     0     2184.0000     2413.0964     8737   10.49%
      1     1     2184.0000     0     2184.0000     2413.0962     8737   10.49%
      2     0        cutoff           2184.0000     2184.0000    13240    0.00%

Gomory fractional cuts applied:  2
User cuts applied:  2

Root node processing (before b&c):
  Real time             =  422.24 sec. (436278.78 ticks)
Sequential b&c:
  Real time             =   24.54 sec. (19119.99 ticks)
                          ------------
Total (root+branch&cut) =  446.78 sec. (455398.77 ticks)
@Parameters: 
is_S_cut                                true
is_add_all_yinF                         true
is_start_value                          true
is_usercut                              true
is_visualization                        false
uc_only_rootnode                        false

data                                    Qi
fn                                      data/Qi/instance_800_1000.csv
mode                                    ZLP
solver                                  cplex

p                                       10
r                                       10

EPS                                     1.0e-06
EPS_vio                                 1.0e-04
beta                                    0.10
gap                                     0.00
nodelimit                               Inf
timelimit                               7200.00


@PrintInfos
ItCnt: 13240
Current gap: 0.00 %
Termination Status: OPTIMAL
Primal Status: FEASIBLE_POINT
Solve Time: 446.78 sec
Objective Value: 2184.000000
Number of Nodes:      3

CutInfo: [phase] num / time (sec) 
ZLP             [phase1]     0 / 0.00 [rLC]     2 / 9.18 [rUC]     3 / 8.68 [sLC]     0 / 1.90 [sUC]     1 / 2.69 
OldSubmodular   [phase1]     0 / 0.00 [rLC]     0 / 0.00 [rUC]     0 / 0.00 [sLC]     0 / 0.00 [sUC]     0 / 0.00 
NewSubmodular   [phase1]     0 / 0.00 [rLC]     0 / 0.00 [rUC]     0 / 0.00 [sLC]     0 / 0.00 [sUC]     0 / 0.00 
PMP             [phase1]     0 / 0.00 [rLC]     3 / 5.65 [rUC]     3 / 4.91 [sLC]     1 / 1.52 [sUC]     1 / 1.53 
Separation Round: [phase1] 0  [rLC] 3  [rUC] 3  [sLC] 1  [sUC] 1
Root Best Bound 2184.000000
Root Best Integer: 2184.000000
Best Bound: 2184.000000
Best Integer: 2184.000000

